(set-logic AUFLIRA)
(declare-const x (_ BitVec 6))
(assert (= (bvult (bvand #b000101 (bvnot x)) (bvurem (bvashr #b000101 (concat ((_ sign_extend 1) #b10) #b100)) #b011110)) (bvult (bvurem (bvashr #b000101 (concat ((_ sign_extend 1) #b10) #b100)) #b011110) (bvand #b000101 (bvnot x)))))
(check-sat)
(get-value (x))
(exit)